
Gurobi 9.0.1 (linux64) logging started Thu Apr 30 20:34:06 2020

Gurobi Optimizer version 9.0.1 build v9.0.1rc0 (linux64)
Optimize a model with 30302 rows, 27380 columns and 600120 nonzeros
Model fingerprint: 0xd7e12041
Variable types: 0 continuous, 27380 integer (27342 binary)
Coefficient statistics:
  Matrix range     [1e+00, 2e+01]
  Objective range  [1e+00, 1e+02]
  Bounds range     [1e+00, 1e+00]
  RHS range        [1e+00, 1e+00]

User MIP start produced solution with objective 1140 (0.87s)
Loaded user MIP start with objective 1140

Presolve removed 13651 rows and 7510 columns (presolve time = 5s) ...
Presolve removed 13691 rows and 7567 columns (presolve time = 10s) ...
Presolve removed 13691 rows and 7567 columns
Presolve time: 10.05s
Presolved: 16611 rows, 19813 columns, 498504 nonzeros
Variable types: 0 continuous, 19813 integer (19813 binary)

Root simplex log...

Iteration    Objective       Primal Inf.    Dual Inf.      Time
       0    1.5500000e+02   6.890000e+02   0.000000e+00     13s
    1780    5.8683341e+02   6.394210e+03   0.000000e+00     15s
    3140    5.9950009e+02   2.230477e+03   0.000000e+00     20s
    4340    6.0327307e+02   3.912678e+03   0.000000e+00     25s
    5540    6.0698703e+02   9.142888e+02   0.000000e+00     30s
    7037    6.1106257e+02   6.468217e+02   0.000000e+00     35s
    8639    6.1403817e+02   1.554669e+01   0.000000e+00     41s
    8779    6.1407691e+02   0.000000e+00   0.000000e+00     41s
    8779    6.1407691e+02   0.000000e+00   0.000000e+00     41s

Root relaxation: objective 6.140769e+02, 8779 iterations, 30.17 seconds

    Nodes    |    Current Node    |     Objective Bounds      |     Work
 Expl Unexpl |  Obj  Depth IntInf | Incumbent    BestBd   Gap | It/Node Time

     0     0  614.07691    0 1307 1140.00000  614.07691  46.1%     -   49s
     0     0  654.15458    0 1304 1140.00000  654.15458  42.6%     -  104s
     0     0  655.66807    0 1234 1140.00000  655.66807  42.5%     -  143s
     0     0  659.01757    0 1369 1140.00000  659.01757  42.2%     -  170s
     0     0  659.02396    0 1373 1140.00000  659.02396  42.2%     -  172s
     0     0  685.48889    0 1408 1140.00000  685.48889  39.9%     -  236s
     0     0  686.29461    0 1475 1140.00000  686.29461  39.8%     -  258s
     0     0  693.56950    0 1431 1140.00000  693.56950  39.2%     -  307s
     0     0  694.52532    0 1487 1140.00000  694.52532  39.1%     -  341s
     0     0  694.83393    0 1453 1140.00000  694.83393  39.0%     -  354s
     0     0  694.88890    0 1504 1140.00000  694.88890  39.0%     -  358s
     0     0  694.89208    0 1526 1140.00000  694.89208  39.0%     -  359s
     0     0  697.43777    0 1410 1140.00000  697.43777  38.8%     -  397s
     0     0  697.83316    0 1440 1140.00000  697.83316  38.8%     -  420s
     0     0  697.84195    0 1458 1140.00000  697.84195  38.8%     -  422s
     0     0  698.48562    0 1531 1140.00000  698.48562  38.7%     -  450s
     0     0  698.51779    0 1552 1140.00000  698.51779  38.7%     -  459s
     0     0  698.52539    0 1562 1140.00000  698.52539  38.7%     -  462s
     0     0  698.89400    0 1510 1140.00000  698.89400  38.7%     -  487s
     0     0  698.93788    0 1523 1140.00000  698.93788  38.7%     -  500s
     0     0  698.94395    0 1544 1140.00000  698.94395  38.7%     -  502s
     0     0  699.40168    0 1550 1140.00000  699.40168  38.6%     -  528s
     0     0  699.42863    0 1543 1140.00000  699.42863  38.6%     -  539s
     0     0  699.42863    0 1545 1140.00000  699.42863  38.6%     -  540s
     0     0  699.93839    0 1514 1140.00000  699.93839  38.6%     -  560s
     0     0  699.96046    0 1507 1140.00000  699.96046  38.6%     -  570s
     0     0  699.98896    0 1546 1140.00000  699.98896  38.6%     -  574s
     0     0  700.00738    0 1542 1140.00000  700.00738  38.6%     -  576s
     0     0  700.00865    0 1538 1140.00000  700.00865  38.6%     -  578s
     0     0  700.70871    0 1508 1140.00000  700.70871  38.5%     -  610s
     0     0  700.76410    0 1559 1140.00000  700.76410  38.5%     -  616s
     0     0  700.77105    0 1539 1140.00000  700.77105  38.5%     -  618s
     0     0  701.11646    0 1528 1140.00000  701.11646  38.5%     -  639s
     0     0  701.15577    0 1537 1140.00000  701.15577  38.5%     -  646s
     0     0  701.15780    0 1534 1140.00000  701.15780  38.5%     -  649s
     0     0  701.33400    0 1529 1140.00000  701.33400  38.5%     -  669s
     0     0  701.34169    0 1532 1140.00000  701.34169  38.5%     -  677s
     0     0  701.60179    0 1551 1140.00000  701.60179  38.5%     -  693s
     0     0  701.64560    0 1599 1140.00000  701.64560  38.5%     -  699s
     0     0  701.65399    0 1586 1140.00000  701.65399  38.5%     -  702s
     0     0  701.72989    0 1584 1140.00000  701.72989  38.4%     -  711s
     0     0  701.73425    0 1588 1140.00000  701.73425  38.4%     -  715s
     0     0  701.79410    0 1599 1140.00000  701.79410  38.4%     -  724s
     0     0  701.79410    0 1551 1140.00000  701.79410  38.4%     -  733s
     0     2  701.95745    0 1549 1140.00000  701.95745  38.4%     -  882s
     1     3  703.27861    1 1528 1140.00000  701.95745  38.4%  6264  904s
     2     4  704.30778    1 1601 1140.00000  703.27861  38.3%  5402  926s
     3     5  703.39403    2 1492 1140.00000  703.27861  38.3%  3845  930s
     4     6  721.88373    2 1413 1140.00000  703.39403  38.3% 16920 1148s
     5     7  703.71896    3 1481 1140.00000  703.39403  38.3% 13897 1157s
     6     8  714.86341    3 1406 1140.00000  703.72877  38.3% 18513 1335s
     7     9  704.04697    4 1471 1140.00000  703.73375  38.3% 16030 1341s
     8    10  704.65164    5 1484 1140.00000  703.73375  38.3% 14201 1348s
     9    11  713.93084    5 1383 1140.00000  703.73375  38.3% 15560 1464s
    10    12  704.77802    6 1499 1140.00000  703.73375  38.3% 14126 1468s
    11    13  716.94660    6 1332 1140.00000  703.73375  38.3% 14051 1508s
    12    14  705.76913    7 1428 1140.00000  703.73375  38.3% 13137 1519s
    13    15  719.19371    7 1365 1140.00000  703.73375  38.3% 13433 1573s
    14    16  709.21453    8 1431 1140.00000  703.73375  38.3% 13040 1600s
    15    17  709.62180    8 1389 1140.00000  703.73375  38.3% 12460 1615s
    16    18  709.89249    9 1479 1140.00000  703.73375  38.3% 11932 1631s
    17    19  723.99925    9 1373 1140.00000  703.73375  38.3% 12020 1674s
    18    20  710.48933   10 1435 1140.00000  703.73375  38.3% 11573 1688s
    19    21  713.21447   10 1435 1140.00000  703.73375  38.3% 11291 1708s
    20    22  710.56891   11 1432 1140.00000  703.73375  38.3% 10803 1714s
    21    23  720.13284   11 1354 1140.00000  703.73375  38.3% 11002 1764s
    22    24  710.81108   12 1409 1140.00000  703.73375  38.3% 10591 1771s
    23    25  724.93639   12 1342 1140.00000  703.73375  38.3% 10783 1820s
    24    26  711.16407   13 1401 1140.00000  703.73375  38.3% 10422 1828s
    25    27  711.46029   14 1391 1140.00000  703.73375  38.3% 10096 1837s
    26    28  725.95123   14 1331 1140.00000  703.73375  38.3% 10244 1881s
    27    29  711.58746   15 1482 1140.00000  703.73375  38.3%  9920 1892s
    28    30  736.46540   15 1241 1140.00000  703.73375  38.3% 10119 1957s
    29    31  711.77878   16 1437 1140.00000  703.73375  38.3%  9832 1964s
    30    32  715.56714   16 1330 1140.00000  703.73375  38.3%  9713 1985s
    31    33  728.03114   17 1331 1140.00000  703.73375  38.3%  9961 2039s
    32    34  711.94013   17 1436 1140.00000  703.73375  38.3%  9693 2045s
    33    35  729.49986   18 1409 1140.00000  703.73375  38.3% 10515 2189s
    34    36  712.36874   18 1435 1140.00000  703.73375  38.3% 10286 2198s
    35    37  712.48181   19 1441 1140.00000  703.73375  38.3% 10068 2208s
    36    38  728.73210   19 1324 1140.00000  703.73375  38.3% 10287 2265s
    37    39  712.56187   20 1445 1140.00000  703.73375  38.3% 10044 2270s
    38    40  730.23130   20 1355 1140.00000  703.73375  38.3% 10282 2329s
    39    41  712.63144   21 1413 1140.00000  703.73375  38.3% 10029 2332s
    40    42  728.99180   21 1357 1140.00000  703.73375  38.3% 10359 2425s
    42    44  730.33824   22 1342 1140.00000  703.73375  38.3% 10316 2482s
    43    45  712.91515   23 1406 1140.00000  703.73375  38.3% 10093 2486s
    44    46  735.18553   23 1336 1140.00000  703.73375  38.3% 11040 2677s
    45    47  712.95483   24 1409 1140.00000  703.73375  38.3% 10819 2681s
    46    48  713.13825   25 1413 1140.00000  703.73375  38.3% 10615 2686s
    47    49  723.15459   25 1389 1140.00000  703.73375  38.3% 10569 2711s
    48    50  713.35049   26 1415 1140.00000  703.73375  38.3% 10418 2722s
    49    51  724.25883   26 1356 1140.00000  703.73375  38.3% 10455 2757s
    50    52  713.51757   27 1424 1140.00000  703.73375  38.3% 10274 2762s
    51    53  720.83062   27 1246 1140.00000  703.73375  38.3% 10292 2794s
    52    54  713.74843   28 1368 1140.00000  703.73375  38.3% 10119 2798s
    53    55  729.11043   28 1302 1140.00000  703.73375  38.3% 10258 2849s
    54    56  714.02485   29 1407 1140.00000  703.73375  38.3% 10112 2862s
    55    57  730.09008   29 1315 1140.00000  703.73375  38.3% 10190 2906s
    56    58  726.75049   30 1354 1140.00000  703.73375  38.3% 10161 2933s
    57    59  714.29934   30 1407 1140.00000  703.73375  38.3% 10011 2938s
    58    60  731.39391   31 1356 1140.00000  703.73375  38.3% 10019 2970s
    60    62  714.78029   32 1382 1140.00000  703.73375  38.3%  9724 2979s
    61    63  725.97895   32 1346 1140.00000  703.73375  38.3%  9747 3013s
    62    64  715.15632   33 1360 1140.00000  703.73375  38.3%  9603 3016s
    63    65  722.36649   33 1252 1140.00000  703.73375  38.3%  9746 3094s
    64    66  716.16190   34 1383 1140.00000  703.73375  38.3%  9636 3103s
    65    67  726.54290   34 1364 1140.00000  703.73375  38.3%  9687 3144s
    66    68  717.23711   35 1388 1140.00000  703.73375  38.3%  9567 3150s
    67    69  727.57003   35 1330 1140.00000  703.73375  38.3%  9560 3178s
    68    70  718.04321   36 1397 1140.00000  703.73375  38.3%  9452 3186s
    69    71  725.13798   36 1351 1140.00000  703.73375  38.3%  9459 3218s
    70    72  728.58143   37 1381 1140.00000  703.73375  38.3%  9554 3279s
    71    73  720.22041   37 1332 1140.00000  703.73375  38.3%  9476 3292s
    72    74  761.04230   38 1314 1140.00000  703.73375  38.3%  9624 3352s
    73    75  722.03308   38 1362 1140.00000  703.73375  38.3%  9562 3369s
    74    76  723.12509   39 1306 1140.00000  703.73375  38.3%  9460 3377s
    75    77  745.98458   39 1277 1140.00000  703.73375  38.3%  9531 3422s
    76    78  724.22698   40 1300 1140.00000  703.73375  38.3%  9425 3429s
    77    79  734.86021   40 1359 1140.00000  703.73375  38.3%  9460 3477s
    78    80  725.52150   41 1326 1140.00000  703.73375  38.3%  9355 3484s
    79    81  750.43406   41 1262 1140.00000  703.73375  38.3%  9348 3510s
    80    82  726.08962   42 1320 1140.00000  703.73375  38.3%  9256 3517s
    81    83  758.39981   42 1255 1140.00000  703.73375  38.3%  9314 3571s
    82    84  726.17426   43 1328 1140.00000  703.73375  38.3%  9213 3576s

Cutting planes:
  Gomory: 5
  MIR: 88
  StrongCG: 20
  GUB cover: 1
  Zero half: 69
  RLT: 34

Explored 83 nodes (888607 simplex iterations) in 3600.03 seconds
Thread count was 1 (of 40 available processors)

Solution count 1: 1140 

Time limit reached
Best objective 1.140000000000e+03, best bound 7.040000000000e+02, gap 38.2456%

User-callback calls 39712, time in user-callback 0.12 sec
